p ocr 260 329 670
1 261
1 262
2 261
2 262
3 261
3 262
3 263
3 264
4 261
4 262
4 263
4 265
5 263
5 264
5 265
5 266
6 265
6 266
7 264
7 267
8 265
8 266
8 268
9 266
9 268
9 269
10 267
10 269
10 270
10 272
11 268
11 269
11 272
12 272
13 271
14 272
15 272
15 273
16 273
17 272
18 274
19 273
20 273
21 273
21 274
21 276
22 273
22 274
22 275
22 276
23 275
23 276
24 274
24 276
24 277
25 276
25 279
26 276
26 278
26 280
27 277
27 278
27 280
27 281
28 280
28 282
28 283
29 282
29 283
30 282
30 283
31 283
32 283
32 284
32 285
33 283
33 285
33 287
34 285
34 286
34 288
34 289
35 285
35 287
35 288
35 290
36 288
36 289
36 290
36 291
36 292
36 293
37 290
37 291
37 292
37 293
37 295
38 293
38 296
39 293
39 294
40 293
40 296
41 294
42 296
43 295
43 296
44 298
46 297
46 299
47 299
48 297
48 298
48 299
48 300
48 302
49 299
49 300
49 303
50 300
50 301
50 302
50 304
51 302
51 303
51 304
52 303
52 304
52 307
53 304
53 305
53 306
54 304
54 305
54 306
54 308
55 306
55 307
55 308
55 309
55 310
55 311
55 312
56 310
56 311
56 312
56 313
57 311
57 313
58 312
58 314
59 312
59 315
59 316
59 318
60 314
60 315
60 316
60 317
60 319
60 320
61 319
61 320
61 321
62 319
62 321
62 322
63 320
63 322
63 323
64 321
64 323
65 322
65 323
65 324
65 325
66 323
66 326
67 323
67 324
68 324
68 325
68 326
68 327
68 328
69 327
69 329
70 327
70 329
71 327
71 328
71 329
71 330
72 329
72 330
73 329
73 330
74 329
74 330
75 330
76 330
76 331
77 332
78 332
79 331
80 331
80 332
82 332
83 331
84 332
85 332
85 333
86 333
88 334
89 336
90 333
90 334
90 335
91 334
91 336
91 337
91 338
92 334
92 335
92 337
92 338
93 337
93 339
95 337
95 338
95 339
95 340
96 338
96 339
96 340
96 341
96 342
97 341
97 344
98 340
98 341
98 342
98 343
98 344
98 345
99 344
99 345
99 346
99 347
100 344
100 345
100 347
100 348
101 346
101 347
101 348
101 349
102 347
102 348
103 348
103 349
104 350
105 350
106 349
106 350
107 349
107 350
108 350
108 351
108 353
108 354
109 350
109 351
109 354
109 355
110 353
110 354
110 355
111 354
111 355
111 356
112 355
112 356
112 357
113 355
113 358
114 356
114 357
114 358
115 357
115 358
116 357
116 358
116 359
117 358
117 359
117 360
118 358
118 359
118 360
119 359
119 360
119 361
120 360
120 361
121 360
121 362
122 360
122 363
123 361
123 363
124 361
124 364
125 363
125 364
126 363
126 364
127 363
127 364
127 365
128 365
128 366
129 365
130 365
130 366
130 367
131 365
131 366
132 367
132 368
133 366
133 367
133 368
134 366
134 368
134 370
134 371
135 368
135 369
135 371
136 371
137 369
137 371
137 372
138 372
139 371
139 372
140 372
141 372
141 373
142 372
142 374
142 376
143 372
143 374
144 373
144 374
144 377
145 378
145 380
146 377
146 380
146 381
147 378
147 380
148 380
148 381
148 382
148 383
149 380
150 381
150 384
151 382
151 384
151 385
152 383
152 384
152 386
153 385
154 384
154 385
155 385
155 386
156 386
156 387
156 388
156 389
157 386
157 387
158 387
158 389
159 389
160 387
160 388
161 389
161 390
163 390
163 391
163 392
164 390
165 390
165 392
165 393
166 391
166 392
166 395
167 392
167 394
167 395
168 394
168 396
169 394
169 395
169 398
169 399
170 395
170 397
170 398
170 399
170 400
171 400
171 402
172 399
172 400
172 402
173 399
173 402
174 402
176 402
177 402
177 403
178 402
178 404
179 403
179 404
180 403
181 403
181 404
181 405
182 404
182 405
183 404
183 405
183 406
184 404
184 405
184 406
185 406
185 408
186 406
186 408
186 409
187 406
188 409
189 408
189 409
189 410
189 411
189 412
190 408
190 410
190 411
190 413
191 411
191 412
192 411
192 412
192 413
192 414
193 412
193 414
193 415
193 418
194 414
194 416
194 417
194 419
195 417
195 420
196 417
196 419
196 420
196 421
197 420
197 421
197 422
198 419
199 422
200 421
200 422
200 424
200 426
201 421
201 422
201 423
201 427
202 425
202 428
202 429
202 431
203 427
203 428
203 430
204 430
204 431
205 429
205 430
205 431
205 432
205 433
206 431
206 432
206 434
207 433
208 434
208 435
209 433
209 435
210 434
210 435
210 436
210 437
211 434
211 435
211 436
211 437
212 436
212 437
212 438
213 437
213 438
214 437
214 438
214 439
216 438
217 438
217 439
217 440
217 441
218 439
218 440
218 442
219 440
219 442
220 440
220 442
220 443
221 442
221 444
221 445
222 442
222 443
222 444
222 445
223 444
223 445
223 446
224 446
225 444
225 445
225 446
225 447
225 448
226 447
226 448
227 446
227 447
228 448
228 449
229 449
230 448
230 449
231 451
232 449
232 450
232 451
232 453
233 450
233 451
233 452
233 454
234 451
234 453
234 454
234 455
235 452
235 454
235 456
235 457
236 454
236 455
236 456
236 457
236 458
236 460
237 457
237 458
237 459
237 460
238 457
238 461
239 459
239 460
239 461
239 463
240 460
240 461
240 462
240 463
240 465
241 462
241 463
241 464
241 465
241 467
242 464
242 465
242 467
242 469
242 470
243 467
243 469
243 470
243 472
244 470
244 471
244 472
245 469
245 474
246 471
246 472
246 473
246 475
246 476
246 478
247 474
247 475
247 476
247 479
249 481
249 482
249 483
250 482
250 483
251 481
252 485
253 484
254 483
254 485
254 486
255 484
255 485
255 486
255 487
256 485
256 488
257 486
257 488
258 486
258 487
258 488
258 489
259 488
259 489
259 490
260 488
260 489
260 490
260 491
260 492